Version identifier: 22.1.0.0 | 2022-03-09 | 1a383f8ce
CPXPARAM_Threads                                 1
CPXPARAM_MIP_Strategy_VariableSelect             3
CPXPARAM_TimeLimit                               600
Tried aggregator 1 time.
MIP Presolve eliminated 12 rows and 0 columns.
MIP Presolve modified 4 coefficients.
Reduced MIP has 1813 rows, 7501 columns, and 93488 nonzeros.
Reduced MIP has 7500 binaries, 0 generals, 0 SOSs, and 0 indicators.
Presolve time = 0.04 sec. (32.25 ticks)
Found incumbent of value 25.000000 after 0.12 sec. (85.78 ticks)
Probing time = 0.01 sec. (7.77 ticks)
Tried aggregator 1 time.
Detecting symmetries...
Reduced MIP has 1813 rows, 7501 columns, and 93488 nonzeros.
Reduced MIP has 7500 binaries, 0 generals, 0 SOSs, and 0 indicators.
Presolve time = 0.05 sec. (38.62 ticks)
Probing time = 0.01 sec. (7.77 ticks)
Clique table members: 303.
MIP emphasis: balance optimality and feasibility.
MIP search method: dynamic search.
Parallel mode: none, using 1 thread.
Root relaxation solution time = 0.96 sec. (1014.13 ticks)

        Nodes                                         Cuts/
   Node  Left     Objective  IInf  Best Integer    Best Bound    ItCnt     Gap

*     0+    0                           25.0000        0.0000           100.00%
      0     0        0.0000  1126       25.0000        0.0000     3940  100.00%
*     0+    0                            1.0000        0.0000           100.00%
*     0+    0                            0.0000        0.0000             0.00%
      0     0        cutoff              0.0000        0.0000     3940    0.00%
Elapsed time = 7.66 sec. (8635.58 ticks, tree = 0.01 MB, solutions = 3)

Root node processing (before b&c):
  Real time             =    7.66 sec. (8635.90 ticks)
Sequential b&c:
  Real time             =    0.00 sec. (0.00 ticks)
                          ------------
Total (root+branch&cut) =    7.66 sec. (8635.90 ticks)
Primal:	0
Dual:	0
Status:	Optimal
Time:	7.68
Sequence:
	10
	13
	21
	22
	21
	23
	21
	9
	21
	13
	21
	2
	20
	16
	21
	22
	10
	24
	21
	8
	10
	13
	21
	9
	14
	13
	21
	22
	24
	14
	13
	15
	24
	10
	16
	2
	21
	23
	11
	19
	10
	19
	11
	23
	21
	23
	17
	13
	10
	12
	18
	16
	10
	13
	17
	23
	21
	24
	11
	16
	6
	8
	19
	10
	24
	11
	16
	15
	23
	7
	16
	11
	19
	11
	16
	24
	6
	3
	10
	16
	6
	9
	5
	13
	16
	11
	24
	14
	2
	21
	23
	11
	19
	10
	3
	24
	11
	12
	6
	16
	1
	24
	21
	13
	8
	10
	13
	16
	11
	19
	20
	22
	21
	13
	14
	9
	14
	9
	20
	16
	6
	8
	7
	23
	19
	17
	13
	10
	24
	17
	16
	7
	9
	14
	13
	16
	11
	13
	21
	13
	17
	24
	6
	16
	9
	16
	7
	23
	17
	13
	16
	6
	22
	15
	23
	14
	13
	11
	19
	14
	13
	9
	5
	13
	21
	22
	20
	19
	11
	16
	13
	10
	8
	7
	12
	20
	2
	14
	24
	14
	22
	6
	16
	14
	9
	7
	16
	14
	9
	14
	0
	4
	9
	20
	16
	6
	8
	10
	13
	21
	2
	14
	13
	11
	12
	6
	12
	1
	13
	21
	13
	15
	13
	10
	16
	2
	16
	10
	2
	14
	23
	21
	22
	20
	19
	11
	19
	20
	24
	15
	24
	5
	13
	11
	16
	6
	16
	11
	24
	14
	2
	16
	6
	13
	17
	13
	12
	11
	24
	14
	24
	17
	23
	6
	19
	11
	16
	6
	24
	15
	13
	12
	10
	2
	14
	13
	21
	2
	6
	16
	14
	2
	10
	13
	15
	16
	10
	13
	11
	19
	14
	24
	1
	24
	16
	14
	9
	13
	10
	12
	15
	13
	10
	13
	15
	16
	9
	20
	24
	14
